325 210 230
49
157 95 60
159 96 63
165 112 52
160 95 60
168 99 52
160 95 60
158 95 60
158 95 60
160 112 51
160 112 51
144 118 48
144 118 48
230 114 37
230 114 37
158 98 63
154 88 27
154 88 27
155 85 24
150 89 30
150 89 30
161 85 29
161 85 29
161 85 29
161 85 29
160 90 24
165 79 21
163 90 25
152 80 70
115 50 30
106 84 35
113 97 49
107 105 56
111 111 52
116 95 35
95 46 19
95 46 19
70 45 45
50 50 50
40 40 40
85 75 69
140 127 65
138 122 90
205 50 50
214 70 56
214 70 56
220 68 53
170 77 15
154 101 35
154 101 35
